 &CONTROL
   !
   calculation = 'scf'
   restart_mode = 'from_scratch'
   tprnfor = .TRUE.
   !
 /
 &SYSTEM
   !
   ecutrho = 300
   ecutwfc = 30
   ibrav = 1
   celldm(1) = 20
   nat = 4
   ntyp = 2
   tot_charge = -1
   !
/
 &ELECTRONS
   !
   conv_thr = 1.D-3
   !
 /
K_POINTS gamma
ATOMIC_SPECIES  
C   12      C.pbe-rrkjus.UPF
H    1      H.pbe-rrkjus.UPF
ATOMIC_POSITIONS (angstrom)
C  0.0000  0.0000  0.3144
H -0.0000  1.0390 -0.0700
H  0.9000 -0.5198 -0.0700
H -0.9000 -0.5198 -0.0700
