 &CONTROL
   !
   calculation = 'scf'
   restart_mode = 'from_scratch'
   tprnfor = .TRUE.
   !
 /
 &SYSTEM
   !
   ecutrho = 300
   ecutwfc = 30
   ibrav = 1
   celldm(1) = 10
   nat = 9
   ntyp = 4
   tot_charge = 0
   !
/
 &ELECTRONS
   !
   conv_thr = 1.D-3
   !
 /
K_POINTS gamma
ATOMIC_SPECIES  
C   12      C.pbe-rrkjus.UPF
H    1      H.pbe-rrkjus.UPF
N   14      N.pbe-rrkjus.UPF
O   16      O.pbe-rrkjus.UPF
ATOMIC_POSITIONS (angstrom)
 C                  0.00000000    0.00000000    0.00000000
 C                  0.00000000    0.00000000    1.54000000
 N                  1.23930016    0.00000000   -0.57682849
 H                  0.50443009   -0.87363574    1.89666635
 H                 -1.00880561   -0.00003153    1.89666685
 H                  0.50437546    0.87366728    1.89666635
 O                 -1.04142313   -0.00001984   -0.67873289
 H                  1.33683990   -0.00001602   -1.56165223
 H                  2.05812401    0.00014187   -0.02721695
