 &CONTROL
   !
   calculation = 'scf'
   restart_mode = 'from_scratch'
   tprnfor = .TRUE.
   !
 /
 &SYSTEM
   !
   ecutrho = 300
   ecutwfc = 30
   ibrav = 1
   celldm( 1 ) = 20
   nat = 2
   ntyp = 2
   nbnd = 6
   tot_charge = 0
   nspin = 2
   starting_magnetization(1) = 1
   occupations = 'smearing'
   smearing = 'gaussian'
   degauss = 0.01
   nosym = .true.
   !
/
 &ELECTRONS
   !
   conv_thr = 5.D-3
   !
 /
K_POINTS (gamma)
ATOMIC_SPECIES  
C   12      C.pbe-rrkjus.UPF  
H    1        H.pbe-rrkjus.UPF  
ATOMIC_POSITIONS (angstrom)
C        0.00000000      0.00000000      0.16007400 
H        0.00000000      0.00000000     -0.96044600 

