 &CONTROL
   !
   calculation = 'scf'
   restart_mode = 'from_scratch'
   tprnfor = .TRUE.
   !
 /
 &SYSTEM
   !
   ecutrho = 300
   ecutwfc = 30
   ibrav = 1
   celldm(1) = 25
   nat = 3
   ntyp = 2
   !
/
 &ELECTRONS
   !
   conv_thr = 5.D-3
   !
 /
K_POINTS gamma
ATOMIC_SPECIES  
 H   1  H.pbe-rrkjus.UPF
 O  16  O.pbe-rrkjus.UPF
ATOMIC_POSITIONS (bohr)
O   11.79  12.05  11.50
H   13.45  11.22  11.50
H   10.56  10.66  11.50
