&CONTROL
   calculation = 'scf'
   restart_mode = 'from_scratch'
   tprnfor = .true.
/
&SYSTEM
   tot_charge       = -1
   ecutwfc          = 40
   ecutrho          = 320
   nosym            = .true.
   nspin            = 1 
   assume_isolated  = 'm-t'
   ntyp             = 1
   nat              = 1
   ibrav            = 1
   celldm(1)        = 20.
/
&ELECTRONS
   conv_thr         = 5e-08
   diagonalization  = 'cg'
/
&IONS
/
&CELL
/

ATOMIC_SPECIES
H  1  H.pbe-rrkjus.UPF

K_POINTS gamma

ATOMIC_POSITIONS angstrom
H  0.000000000 0.00000000 0.00000000 

