&CONTROL
  calculation = 'scf',
  outdir = './tmp',
  prefix = 'Si',
  restart_mode = 'from_scratch',
  verbosity = 'high',
  pseudo_dir = '/Users/qcampbe/Documents/espresso/pseudo',
/
&SYSTEM
  assume_isolated = 'slabz',
  degauss = 0.0001,
  ecutwfc = 20,
  occupations = 'smearing',
  smearing = 'mv',
  ibrav = 0,
  nat = 4,
  ntyp = 1,
/
&ELECTRONS
  conv_thr = 1d-08,
  diagonalization = 'david',
  mixing_mode = 'local-TF',
/
ATOMIC_SPECIES
  Si  28.0855 Si.pbe-n-kjpaw_psl.1.0.0.UPF
ATOMIC_POSITIONS crystal
  Si 1.000000 0.500000 0.562500
  Si 0.500000 0.500000 0.437500
  Si 0.500000 1.000000 0.479167
  Si 1.000000 0.000000 0.520833
K_POINTS automatic
  1 1 1 0 0 0
CELL_PARAMETERS angstrom
  3.866975 0.000000 0.000000
  -0.000000 3.866975 0.000000
  0.000000 0.000000 32.812368
